\Problem name: compact

Minimize
OBJROW: C
Subject To
ord(0,1):  - x(0,1) + x(0,2) >= 7
ord(0,2):  x(0,0) - x(0,2) >= 7
ord(1,1):  x(1,0) - x(1,1) >= 4
ord(1,2):  - x(1,0) + x(1,2) >= 3
ord(2,1):  - x(2,1) + x(2,2) >= 7
ord(2,2):  x(2,0) - x(2,2) >= 6
triangle2(0,1,0):  y(0,1,0) + y(1,0,0) = 1
triangle2(0,1,1):  y(0,1,1) + y(1,0,1) = 1
triangle2(0,1,2):  y(0,1,2) + y(1,0,2) = 1
triangle2(0,2,0):  y(0,2,0) + y(2,0,0) = 1
triangle2(0,2,1):  y(0,2,1) + y(2,0,1) = 1
triangle2(0,2,2):  y(0,2,2) + y(2,0,2) = 1
triangle2(1,2,0):  y(1,2,0) + y(2,1,0) = 1
triangle2(1,2,1):  y(1,2,1) + y(2,1,1) = 1
triangle2(1,2,2):  y(1,2,2) + y(2,1,2) = 1
MCLinV(0,1,0):  - x(0,0) + v(0,1,0)p - v(0,1,0)n + x(1,0) = -3
MCLinV(1,0,0):  x(0,0) + v(1,0,0)p - v(1,0,0)n - x(1,0) = -1
MCLin1(0,1,0):  u(0,1,0)p - u(0,1,0)n >= 0
MCLin2(0,1,0):  23 y(1,0,0) + u(0,1,0)p - u(0,1,0)n >= 0
MCLin3(0,1,0):  -36 y(1,0,0) - v(0,1,0)p + v(0,1,0)n + u(0,1,0)p - u(0,1,0)n >= -36
MCLin4(0,1,0):  -36 y(1,0,0) + u(0,1,0)p - u(0,1,0)n <= 0
MCLin5(0,1,0):  23 y(1,0,0) - v(0,1,0)p + v(0,1,0)n + u(0,1,0)p - u(0,1,0)n <= 23
MCLin6(1,0,0):  u(1,0,0)p - u(1,0,0)n >= 0
MCLin7(1,0,0):  40 y(0,1,0) + u(1,0,0)p - u(1,0,0)n >= 0
MCLin8(1,0,0):  -19 y(0,1,0) - v(1,0,0)p + v(1,0,0)n + u(1,0,0)p - u(1,0,0)n >= -19
MCLin9(1,0,0):  -19 y(0,1,0) + u(1,0,0)p - u(1,0,0)n <= 0
MCLin10(1,0,0):  40 y(0,1,0) - v(1,0,0)p + v(1,0,0)n + u(1,0,0)p - u(1,0,0)n <= 40
MCLinV(0,1,1):  - x(0,1) + v(0,1,1)p - v(0,1,1)n + x(1,1) = -4
MCLinV(1,0,1):  x(0,1) + v(1,0,1)p - v(1,0,1)n - x(1,1) = -7
MCLin1(0,1,1):  u(0,1,1)p - u(0,1,1)n >= 0
MCLin2(0,1,1):  34 y(1,0,1) + u(0,1,1)p - u(0,1,1)n >= 0
MCLin3(0,1,1):  -25 y(1,0,1) - v(0,1,1)p + v(0,1,1)n + u(0,1,1)p - u(0,1,1)n >= -25
MCLin4(0,1,1):  -25 y(1,0,1) + u(0,1,1)p - u(0,1,1)n <= 0
MCLin5(0,1,1):  34 y(1,0,1) - v(0,1,1)p + v(0,1,1)n + u(0,1,1)p - u(0,1,1)n <= 34
MCLin6(1,0,1):  u(1,0,1)p - u(1,0,1)n >= 0
MCLin7(1,0,1):  36 y(0,1,1) + u(1,0,1)p - u(1,0,1)n >= 0
MCLin8(1,0,1):  -23 y(0,1,1) - v(1,0,1)p + v(1,0,1)n + u(1,0,1)p - u(1,0,1)n >= -23
MCLin9(1,0,1):  -23 y(0,1,1) + u(1,0,1)p - u(1,0,1)n <= 0
MCLin10(1,0,1):  36 y(0,1,1) - v(1,0,1)p + v(1,0,1)n + u(1,0,1)p - u(1,0,1)n <= 36
MCLinV(0,1,2):  - x(0,2) + v(0,1,2)p - v(0,1,2)n + x(1,2) = -7
MCLinV(1,0,2):  x(0,2) + v(1,0,2)p - v(1,0,2)n - x(1,2) = -7
MCLin1(0,1,2):  u(0,1,2)p - u(0,1,2)n >= 0
MCLin2(0,1,2):  37 y(1,0,2) + u(0,1,2)p - u(0,1,2)n >= 0
MCLin3(0,1,2):  -22 y(1,0,2) - v(0,1,2)p + v(0,1,2)n + u(0,1,2)p - u(0,1,2)n >= -22
MCLin4(0,1,2):  -22 y(1,0,2) + u(0,1,2)p - u(0,1,2)n <= 0
MCLin5(0,1,2):  37 y(1,0,2) - v(0,1,2)p + v(0,1,2)n + u(0,1,2)p - u(0,1,2)n <= 37
MCLin6(1,0,2):  u(1,0,2)p - u(1,0,2)n >= 0
MCLin7(1,0,2):  36 y(0,1,2) + u(1,0,2)p - u(1,0,2)n >= 0
MCLin8(1,0,2):  -23 y(0,1,2) - v(1,0,2)p + v(1,0,2)n + u(1,0,2)p - u(1,0,2)n >= -23
MCLin9(1,0,2):  -23 y(0,1,2) + u(1,0,2)p - u(1,0,2)n <= 0
MCLin10(1,0,2):  36 y(0,1,2) - v(1,0,2)p + v(1,0,2)n + u(1,0,2)p - u(1,0,2)n <= 36
MCLinV(0,2,0):  - x(0,0) + v(0,2,0)p - v(0,2,0)n + x(2,0) = -2
MCLinV(2,0,0):  x(0,0) + v(2,0,0)p - v(2,0,0)n - x(2,0) = -1
MCLin1(0,2,0):  u(0,2,0)p - u(0,2,0)n >= 0
MCLin2(0,2,0):  30 y(2,0,0) + u(0,2,0)p - u(0,2,0)n >= 0
MCLin3(0,2,0):  -28 y(2,0,0) - v(0,2,0)p + v(0,2,0)n + u(0,2,0)p - u(0,2,0)n >= -28
MCLin4(0,2,0):  -28 y(2,0,0) + u(0,2,0)p - u(0,2,0)n <= 0
MCLin5(0,2,0):  30 y(2,0,0) - v(0,2,0)p + v(0,2,0)n + u(0,2,0)p - u(0,2,0)n <= 30
MCLin6(2,0,0):  u(2,0,0)p - u(2,0,0)n >= 0
MCLin7(2,0,0):  31 y(0,2,0) + u(2,0,0)p - u(2,0,0)n >= 0
MCLin8(2,0,0):  -27 y(0,2,0) - v(2,0,0)p + v(2,0,0)n + u(2,0,0)p - u(2,0,0)n >= -27
MCLin9(2,0,0):  -27 y(0,2,0) + u(2,0,0)p - u(2,0,0)n <= 0
MCLin10(2,0,0):  31 y(0,2,0) - v(2,0,0)p + v(2,0,0)n + u(2,0,0)p - u(2,0,0)n <= 31
MCLinV(0,2,1):  - x(0,1) + v(0,2,1)p - v(0,2,1)n + x(2,1) = -7
MCLinV(2,0,1):  x(0,1) + v(2,0,1)p - v(2,0,1)n - x(2,1) = -7
MCLin1(0,2,1):  u(0,2,1)p - u(0,2,1)n >= 0
MCLin2(0,2,1):  36 y(2,0,1) + u(0,2,1)p - u(0,2,1)n >= 0
MCLin3(0,2,1):  -22 y(2,0,1) - v(0,2,1)p + v(0,2,1)n + u(0,2,1)p - u(0,2,1)n >= -22
MCLin4(0,2,1):  -22 y(2,0,1) + u(0,2,1)p - u(0,2,1)n <= 0
MCLin5(0,2,1):  36 y(2,0,1) - v(0,2,1)p + v(0,2,1)n + u(0,2,1)p - u(0,2,1)n <= 36
MCLin6(2,0,1):  u(2,0,1)p - u(2,0,1)n >= 0
MCLin7(2,0,1):  36 y(0,2,1) + u(2,0,1)p - u(2,0,1)n >= 0
MCLin8(2,0,1):  -22 y(0,2,1) - v(2,0,1)p + v(2,0,1)n + u(2,0,1)p - u(2,0,1)n >= -22
MCLin9(2,0,1):  -22 y(0,2,1) + u(2,0,1)p - u(2,0,1)n <= 0
MCLin10(2,0,1):  36 y(0,2,1) - v(2,0,1)p + v(2,0,1)n + u(2,0,1)p - u(2,0,1)n <= 36
MCLinV(0,2,2):  - x(0,2) + v(0,2,2)p - v(0,2,2)n + x(2,2) = -6
MCLinV(2,0,2):  x(0,2) + v(2,0,2)p - v(2,0,2)n - x(2,2) = -7
MCLin1(0,2,2):  u(0,2,2)p - u(0,2,2)n >= 0
MCLin2(0,2,2):  35 y(2,0,2) + u(0,2,2)p - u(0,2,2)n >= 0
MCLin3(0,2,2):  -23 y(2,0,2) - v(0,2,2)p + v(0,2,2)n + u(0,2,2)p - u(0,2,2)n >= -23
MCLin4(0,2,2):  -23 y(2,0,2) + u(0,2,2)p - u(0,2,2)n <= 0
MCLin5(0,2,2):  35 y(2,0,2) - v(0,2,2)p + v(0,2,2)n + u(0,2,2)p - u(0,2,2)n <= 35
MCLin6(2,0,2):  u(2,0,2)p - u(2,0,2)n >= 0
MCLin7(2,0,2):  36 y(0,2,2) + u(2,0,2)p - u(2,0,2)n >= 0
MCLin8(2,0,2):  -22 y(0,2,2) - v(2,0,2)p + v(2,0,2)n + u(2,0,2)p - u(2,0,2)n >= -22
MCLin9(2,0,2):  -22 y(0,2,2) + u(2,0,2)p - u(2,0,2)n <= 0
MCLin10(2,0,2):  36 y(0,2,2) - v(2,0,2)p + v(2,0,2)n + u(2,0,2)p - u(2,0,2)n <= 36
MCLinV(1,2,0):  - x(1,0) + v(1,2,0)p - v(1,2,0)n + x(2,0) = -2
MCLinV(2,1,0):  x(1,0) + v(2,1,0)p - v(2,1,0)n - x(2,0) = -3
MCLin1(1,2,0):  u(1,2,0)p - u(1,2,0)n >= 0
MCLin2(1,2,0):  40 y(2,1,0) + u(1,2,0)p - u(1,2,0)n >= 0
MCLin3(1,2,0):  -19 y(2,1,0) - v(1,2,0)p + v(1,2,0)n + u(1,2,0)p - u(1,2,0)n >= -19
MCLin4(1,2,0):  -19 y(2,1,0) + u(1,2,0)p - u(1,2,0)n <= 0
MCLin5(1,2,0):  40 y(2,1,0) - v(1,2,0)p + v(1,2,0)n + u(1,2,0)p - u(1,2,0)n <= 40
MCLin6(2,1,0):  u(2,1,0)p - u(2,1,0)n >= 0
MCLin7(2,1,0):  24 y(1,2,0) + u(2,1,0)p - u(2,1,0)n >= 0
MCLin8(2,1,0):  -35 y(1,2,0) - v(2,1,0)p + v(2,1,0)n + u(2,1,0)p - u(2,1,0)n >= -35
MCLin9(2,1,0):  -35 y(1,2,0) + u(2,1,0)p - u(2,1,0)n <= 0
MCLin10(2,1,0):  24 y(1,2,0) - v(2,1,0)p + v(2,1,0)n + u(2,1,0)p - u(2,1,0)n <= 24
MCLinV(1,2,1):  - x(1,1) + v(1,2,1)p - v(1,2,1)n + x(2,1) = -7
MCLinV(2,1,1):  x(1,1) + v(2,1,1)p - v(2,1,1)n - x(2,1) = -4
MCLin1(1,2,1):  u(1,2,1)p - u(1,2,1)n >= 0
MCLin2(1,2,1):  36 y(2,1,1) + u(1,2,1)p - u(1,2,1)n >= 0
MCLin3(1,2,1):  -23 y(2,1,1) - v(1,2,1)p + v(1,2,1)n + u(1,2,1)p - u(1,2,1)n >= -23
MCLin4(1,2,1):  -23 y(2,1,1) + u(1,2,1)p - u(1,2,1)n <= 0
MCLin5(1,2,1):  36 y(2,1,1) - v(1,2,1)p + v(1,2,1)n + u(1,2,1)p - u(1,2,1)n <= 36
MCLin6(2,1,1):  u(2,1,1)p - u(2,1,1)n >= 0
MCLin7(2,1,1):  34 y(1,2,1) + u(2,1,1)p - u(2,1,1)n >= 0
MCLin8(2,1,1):  -25 y(1,2,1) - v(2,1,1)p + v(2,1,1)n + u(2,1,1)p - u(2,1,1)n >= -25
MCLin9(2,1,1):  -25 y(1,2,1) + u(2,1,1)p - u(2,1,1)n <= 0
MCLin10(2,1,1):  34 y(1,2,1) - v(2,1,1)p + v(2,1,1)n + u(2,1,1)p - u(2,1,1)n <= 34
MCLinV(1,2,2):  - x(1,2) + v(1,2,2)p - v(1,2,2)n + x(2,2) = -6
MCLinV(2,1,2):  x(1,2) + v(2,1,2)p - v(2,1,2)n - x(2,2) = -7
MCLin1(1,2,2):  u(1,2,2)p - u(1,2,2)n >= 0
MCLin2(1,2,2):  35 y(2,1,2) + u(1,2,2)p - u(1,2,2)n >= 0
MCLin3(1,2,2):  -24 y(2,1,2) - v(1,2,2)p + v(1,2,2)n + u(1,2,2)p - u(1,2,2)n >= -24
MCLin4(1,2,2):  -24 y(2,1,2) + u(1,2,2)p - u(1,2,2)n <= 0
MCLin5(1,2,2):  35 y(2,1,2) - v(1,2,2)p + v(1,2,2)n + u(1,2,2)p - u(1,2,2)n <= 35
MCLin6(2,1,2):  u(2,1,2)p - u(2,1,2)n >= 0
MCLin7(2,1,2):  37 y(1,2,2) + u(2,1,2)p - u(2,1,2)n >= 0
MCLin8(2,1,2):  -22 y(1,2,2) - v(2,1,2)p + v(2,1,2)n + u(2,1,2)p - u(2,1,2)n >= -22
MCLin9(2,1,2):  -22 y(1,2,2) + u(2,1,2)p - u(2,1,2)n <= 0
MCLin10(2,1,2):  37 y(1,2,2) - v(2,1,2)p + v(2,1,2)n + u(2,1,2)p - u(2,1,2)n <= 37
makespan(0):  C - x(0,0) >= 1
makespan(1):  C - x(1,2) >= 7
makespan(2):  C - x(2,0) >= 2
cut_clique_1(12,1):  0.93631 x(1,1) + x(2,1) >= 1
cut_clique_1(012,1):  0.51654 x(0,1) + 0.97604 x(1,1) + 0.86494 x(2,1) >= 1
cut_clique_1(01,1):  0.97734 x(0,1) + x(1,1) >= 1
cut_clique_1(02,1):  x(0,1) + 0.90070 x(2,1) >= 1
cut_clique_1(01,2):  0.04384 x(0,2) + 0.08118 x(1,2) >= 1
cut_clique_1(02,2):  0.04831 x(0,2) + 0.09414 x(2,2) >= 1
cut_clique_2(012,1):  0.51365 x(0,1) + 0.99941 x(1,1) + 0.39549 x(2,1) >= 1
cut_clique_2(01,1):  0.80594 x(0,1) + 0.88828 x(1,1) >= 1
cut_clique_2(12,1):  0.91193 x(1,1) + x(2,1) >= 1
cut_clique_2(02,1):  0.92070 x(0,1) + 0.91404 x(2,1) >= 1
cut_clique_2(12,2):  0.03484 x(1,2) + 0.09155 x(2,2) >= 1
cut_clique_2(02,2):  0.08921 x(0,2) + 0.04347 x(2,2) >= 1
cut_clique_2(012,2):  0.02504 x(0,2) + 0.00030 x(1,2) + 0.09798 x(2,2) >= 1
cut_clique_3(12,1):  0.36130 x(1,1) + 0.84558 x(2,1) >= 1
cut_clique_3(02,1):  0.60488 x(0,1) + 0.25554 x(2,1) >= 1
cut_clique_3(012,1):  0.53850 x(0,1) + 0.74574 x(1,1) + 0.22304 x(2,1) >= 1
cut_clique_3(01,1):  0.80033 x(0,1) + 0.83645 x(1,1) >= 1
cut_clique_3(12,2):  0.05744 x(1,2) + 0.05395 x(2,2) >= 1
cut_clique_3(01,2):  0.05192 x(0,2) + 0.06258 x(1,2) >= 1
cut_clique_4(01,1):  0.78579 x(0,1) + 0.76829 x(1,1) >= 1
cut_clique_4(012,1):  0.48916 x(0,1) + 0.75084 x(1,1) + 0.07499 x(2,1) >= 1
cut_clique_4(12,1):  0.67914 x(1,1) + 0.49251 x(2,1) >= 1
cut_clique_4(02,1):  0.59042 x(0,1) + 0.17929 x(2,1) >= 1
cut_clique_4(012,2):  0.10188 x(0,2) + 0.01460 x(1,2) + 0.00474 x(2,2) >= 1
cut_clique_5(02,1):  0.37195 x(0,1) + 0.34956 x(2,1) >= 1
cut_clique_5(012,1):  0.21778 x(0,1) + 0.50673 x(1,1) + 0.32386 x(2,1) >= 1
cut_clique_5(01,1):  0.62208 x(0,1) + 0.53719 x(1,1) >= 1
cut_clique_5(12,1):  0.35967 x(1,1) + 0.54170 x(2,1) >= 1
cut_clique_5(02,2):  0.04230 x(0,2) + 0.07548 x(2,2) >= 1
cut_clique_5(12,2):  0.04264 x(1,2) + 0.06742 x(2,2) >= 1
cut_clique_6(02,1):  0.29894 x(0,1) + 0.40387 x(2,1) >= 1
cut_clique_6(012,1):  0.14659 x(0,1) + 0.24736 x(1,1) + 0.38970 x(2,1) >= 1
cut_clique_6(12,1):  0.73163 x(1,1) + 0.42654 x(2,1) >= 1
cut_clique_6(01,1):  0.54966 x(0,1) + 0.71754 x(1,1) >= 1
cut_clique_6(01,2):  0.06597 x(0,2) + 0.04665 x(1,2) >= 1
cut_clique_6(02,2):  0.08917 x(0,2) + 0.03053 x(2,2) >= 1
cut_clique_6(012,2):  0.06301 x(0,2) + 0.02975 x(1,2) + 0.02062 x(2,2) >= 1
cut_clique_7(01,1):  0.41721 x(0,1) + 0.72900 x(1,1) >= 1
cut_clique_7(012,1):  0.46413 x(0,1) + 0.40638 x(1,1) + 0.09427 x(2,1) >= 1
cut_clique_7(02,1):  0.40116 x(0,1) + 0.22255 x(2,1) >= 1
cut_clique_7(12,1):  0.77358 x(1,1) + 0.26819 x(2,1) >= 1
cut_clique_7(01,2):  0.08276 x(0,2) + 0.03079 x(1,2) >= 1
cut_clique_8(012,1):  0.12356 x(0,1) + 0.23981 x(1,1) + 0.28755 x(2,1) >= 1
cut_clique_8(12,1):  0.52780 x(1,1) + 0.36822 x(2,1) >= 1
cut_clique_8(01,1):  0.30047 x(0,1) + 0.73649 x(1,1) >= 1
cut_clique_8(02,1):  0.23020 x(0,1) + 0.26232 x(2,1) >= 1
cut_clique_8(12,2):  0.04333 x(1,2) + 0.06634 x(2,2) >= 1
cut_clique_8(01,2):  0.07125 x(0,2) + 0.03985 x(1,2) >= 1
cut_clique_9(02,1):  0.26564 x(0,1) + 0.22121 x(2,1) >= 1
cut_clique_9(12,1):  0.28541 x(1,1) + 0.38921 x(2,1) >= 1
cut_clique_9(01,1):  0.39529 x(0,1) + 0.28600 x(1,1) >= 1
cut_clique_9(012,1):  0.17677 x(0,1) + 0.10470 x(1,1) + 0.25024 x(2,1) >= 1
cut_clique_9(01,2):  0.05674 x(0,2) + 0.04727 x(1,2) >= 1
cut_clique_10(012,1):  0.21821 x(0,1) + 0.55969 x(1,1) + 0.05212 x(2,1) >= 1
cut_clique_10(01,1):  0.34045 x(0,1) + 0.33607 x(1,1) >= 1
cut_clique_10(02,1):  0.27054 x(0,1) + 0.18359 x(2,1) >= 1
cut_clique_10(12,1):  0.35442 x(1,1) + 0.30865 x(2,1) >= 1
cut_clique_10(01,2):  0.06240 x(0,2) + 0.04187 x(1,2) >= 1
cut_clique_11(01,1):  0.29215 x(0,1) + 0.38240 x(1,1) >= 1
cut_clique_11(012,1):  0.08602 x(0,1) + 0.68962 x(1,1) + 0.07204 x(2,1) >= 1
cut_clique_11(12,1):  0.16263 x(1,1) + 0.36265 x(2,1) >= 1
cut_clique_11(02,2):  0.06781 x(0,2) + 0.04034 x(2,2) >= 1
cut_clique_12(12,1):  0.27651 x(1,1) + 0.30269 x(2,1) >= 1
cut_clique_12(02,1):  0.23259 x(0,1) + 0.21133 x(2,1) >= 1
cut_clique_12(01,1):  0.30101 x(0,1) + 0.27729 x(1,1) >= 1
cut_clique_12(012,1):  0.28083 x(0,1) + 0.28792 x(1,1) + 0.00074 x(2,1) >= 1
cut_clique_12(02,2):  0.04705 x(0,2) + 0.05846 x(2,2) >= 1
cut_clique_13(012,1):  0.22242 x(0,1) + 0.07757 x(1,1) + 0.10328 x(2,1) >= 1
cut_clique_13(02,1):  0.20158 x(0,1) + 0.22354 x(2,1) >= 1
cut_clique_13(01,1):  0.27561 x(0,1) + 0.26479 x(1,1) >= 1
cut_clique_13(12,1):  0.31102 x(1,1) + 0.28170 x(2,1) >= 1
cut_clique_13(01,2):  0.04433 x(0,2) + 0.05449 x(1,2) >= 1
cut_clique_14(02,1):  0.22883 x(0,1) + 0.18595 x(2,1) >= 1
cut_clique_14(12,1):  0.15399 x(1,1) + 0.26759 x(2,1) >= 1
cut_clique_14(02,2):  0.06329 x(0,2) + 0.04029 x(2,2) >= 1
cut_clique_14(12,2):  0.05209 x(1,2) + 0.04747 x(2,2) >= 1
cut_clique_15(02,1):  0.17785 x(0,1) + 0.19756 x(2,1) >= 1
cut_clique_15(01,1):  0.26930 x(0,1) + 0.15017 x(1,1) >= 1
cut_clique_15(01,2):  0.05410 x(0,2) + 0.04530 x(1,2) >= 1
cut_clique_16(012,1):  0.08110 x(0,1) + 0.06783 x(1,1) + 0.24116 x(2,1) >= 1
cut_clique_16(01,1):  0.26631 x(0,1) + 0.15335 x(1,1) >= 1
cut_clique_16(02,1):  0.22309 x(0,1) + 0.14562 x(2,1) >= 1
cut_clique_17(02,1):  0.21300 x(0,1) + 0.14863 x(2,1) >= 1
cut_clique_17(012,1):  0.13463 x(0,1) + 0.11929 x(1,1) + 0.14291 x(2,1) >= 1
cut_clique_17(01,1):  0.25285 x(0,1) + 0.16609 x(1,1) >= 1
cut_clique_17(01,2):  0.04853 x(0,2) + 0.04947 x(1,2) >= 1
cut_clique_17(02,2):  0.05968 x(0,2) + 0.04300 x(2,2) >= 1
cut_clique_18(12,1):  0.14776 x(1,1) + 0.25697 x(2,1) >= 1
cut_clique_18(012,1):  0.17192 x(0,1) + 0.16349 x(1,1) + 0.07336 x(2,1) >= 1
cut_clique_18(01,2):  0.04773 x(0,2) + 0.04877 x(1,2) >= 1
cut_clique_19(02,1):  0.16212 x(0,1) + 0.18656 x(2,1) >= 1
cut_clique_19(012,1):  0.15188 x(0,1) + 0.07783 x(1,1) + 0.12671 x(2,1) >= 1
cut_clique_19(012,2):  0.03152 x(0,2) + 0.05427 x(1,2) + 0.00903 x(2,2) >= 1
cut_clique_20(012,1):  0.07045 x(0,1) + 0.08377 x(1,1) + 0.07956 x(2,1) >= 1
cut_clique_20(02,1):  0.18841 x(0,1) + 0.14469 x(2,1) >= 1
cut_clique_20(02,2):  0.05190 x(0,2) + 0.04800 x(2,2) >= 1
Bounds
 0 <= C <= 44
 14 <= x(0,0) <= 43
 0 <= y(0,1,0) <= 1
 0 <= y(1,0,0) <= 1
 0 <= v(0,1,0)p <= 36
 0 <= v(0,1,0)n <= 23
 0 <= v(1,0,0)p <= 19
 0 <= v(1,0,0)n <= 40
 0 <= u(0,1,0)p <= 440
 0 <= u(0,1,0)n <= 440
 0 <= u(1,0,0)p <= 440
 0 <= u(1,0,0)n <= 440
 0 <= y(0,2,0) <= 1
 0 <= y(2,0,0) <= 1
 0 <= v(0,2,0)p <= 28
 0 <= v(0,2,0)n <= 30
 0 <= v(2,0,0)p <= 27
 0 <= v(2,0,0)n <= 31
 0 <= u(0,2,0)p <= 440
 0 <= u(0,2,0)n <= 440
 0 <= u(2,0,0)p <= 440
 0 <= u(2,0,0)n <= 440
 4 <= x(1,0) <= 34
 0 <= y(1,2,0) <= 1
 0 <= y(2,1,0) <= 1
 0 <= v(1,2,0)p <= 19
 0 <= v(1,2,0)n <= 40
 0 <= v(2,1,0)p <= 35
 0 <= v(2,1,0)n <= 24
 0 <= u(1,2,0)p <= 440
 0 <= u(1,2,0)n <= 440
 0 <= u(2,1,0)p <= 440
 0 <= u(2,1,0)n <= 440
 13 <= x(2,0) <= 42
 0 <= x(0,1) <= 29
 0 <= y(0,1,1) <= 1
 0 <= y(1,0,1) <= 1
 0 <= v(0,1,1)p <= 25
 0 <= v(0,1,1)n <= 34
 0 <= v(1,0,1)p <= 23
 0 <= v(1,0,1)n <= 36
 0 <= u(0,1,1)p <= 440
 0 <= u(0,1,1)n <= 440
 0 <= u(1,0,1)p <= 440
 0 <= u(1,0,1)n <= 440
 0 <= y(0,2,1) <= 1
 0 <= y(2,0,1) <= 1
 0 <= v(0,2,1)p <= 22
 0 <= v(0,2,1)n <= 36
 0 <= v(2,0,1)p <= 22
 0 <= v(2,0,1)n <= 36
 0 <= u(0,2,1)p <= 440
 0 <= u(0,2,1)n <= 440
 0 <= u(2,0,1)p <= 440
 0 <= u(2,0,1)n <= 440
 0 <= x(1,1) <= 30
 0 <= y(1,2,1) <= 1
 0 <= y(2,1,1) <= 1
 0 <= v(1,2,1)p <= 23
 0 <= v(1,2,1)n <= 36
 0 <= v(2,1,1)p <= 25
 0 <= v(2,1,1)n <= 34
 0 <= u(1,2,1)p <= 440
 0 <= u(1,2,1)n <= 440
 0 <= u(2,1,1)p <= 440
 0 <= u(2,1,1)n <= 440
 0 <= x(2,1) <= 29
 7 <= x(0,2) <= 36
 0 <= y(0,1,2) <= 1
 0 <= y(1,0,2) <= 1
 0 <= v(0,1,2)p <= 22
 0 <= v(0,1,2)n <= 37
 0 <= v(1,0,2)p <= 23
 0 <= v(1,0,2)n <= 36
 0 <= u(0,1,2)p <= 440
 0 <= u(0,1,2)n <= 440
 0 <= u(1,0,2)p <= 440
 0 <= u(1,0,2)n <= 440
 0 <= y(0,2,2) <= 1
 0 <= y(2,0,2) <= 1
 0 <= v(0,2,2)p <= 23
 0 <= v(0,2,2)n <= 35
 0 <= v(2,0,2)p <= 22
 0 <= v(2,0,2)n <= 36
 0 <= u(0,2,2)p <= 440
 0 <= u(0,2,2)n <= 440
 0 <= u(2,0,2)p <= 440
 0 <= u(2,0,2)n <= 440
 7 <= x(1,2) <= 37
 0 <= y(1,2,2) <= 1
 0 <= y(2,1,2) <= 1
 0 <= v(1,2,2)p <= 24
 0 <= v(1,2,2)n <= 35
 0 <= v(2,1,2)p <= 22
 0 <= v(2,1,2)n <= 37
 0 <= u(1,2,2)p <= 440
 0 <= u(1,2,2)n <= 440
 0 <= u(2,1,2)p <= 440
 0 <= u(2,1,2)n <= 440
 7 <= x(2,2) <= 36
End
